Route #1: 2 20 54 3 31 71 51 56
Route #2: 61 50 28 74 41 14 36 6 21 43
Route #3: 24 12 46 34 15 67 69
Route #4: 48 13 4 59 35 55 33
Route #5: 63 5 65 64 11 23 44 26
Route #6: 25 10 68 18 66 16 42 62
Route #7: 72 39 19 9 60 53 40 77
Route #8: 76 45 73 32 7 8 22
Route #9: 37 70 30 1 52 58 17
Route #10: 38 57 29 75 49 47 27
cost 1602.1748046875